40 8
5 493
4 63
3 192
5 745
5 939
1 581
7 365
1 146
1 15
1 338
7 119
7 81
2 947
6 505
4 969
5 351
4 476
3 293
2 400
4 549
4 420
6 394
2 6
7 242
2 362
3 132
3 948
3 292
4 858
7 364
7 817
3 10
4 435
3 411
5 711
4 326
7 165
1 188
3 829
3 985
